RAW/XY/fspd/X-n190-k8.vrp_seed-0.out
13295	28.331	35.675
