RAW/XY/fspd/X-n190-k8.vrp_seed-0.sol
Route #1: 131 99 45 184 160 182 37
Route #2: 105 188 64 25 183 136 167 123 52 71 177 148 98 141 70 185 18 84 153 180 61 32 40 76 126 54 181 41 152 87 186 146 101 47 5 176 125 86 12 24 97 143 95 128 163 171 13 63
Route #3: 172 120 168 102 28 138 85 36 22 77 137 151 174 48 130 56 8 100 42 62 179 178 21 68 50 94 144 115 145 81 92 46 44 127 83
Route #4: 19 57 66 110 4 34 73 112 169 80 78 147 150 30 39 2 38 6 35 109 89 104 142 159 58 43 10 103 108 129 133 72 139 88 165 1 29
Route #5: 16 170 166 157 173 132 134 161 74 111 107 33 7 155 17 79 60 116 82 122 11 175 117 26 49 119 106
Route #6: 149 156 135 69 55 59 96 90 3 15 27 187 124 140 189 154 53 162 20 65 114 9 91 113 23 164 158 121 75 93 51 67 14 31 118
Cost 13295.000000